NAME: line_16_55
TYPE: TSP
COMMENT: srandom_16_55
DIMENSION: 16
EDGE_WEIGHT_TYPE: EUC_2D
NODE_COORD_SECTION
1 3970 4902
2 2847 1672
3 4295 2365
4 3885 241
5 2650 2728
6 3238 3392
7 810 1628
8 3194 4525
9 1984 3721
10 1514 4945
11 2729 3201
12 127 3508
13 1318 2263
14 2191 443
15 2084 3118
16 1573 1434
